p edge 100 1050 83
e 16 22
e 16 73
e 16 10
e 16 86
e 16 95
e 16 2
e 16 54
e 16 72
e 16 90
e 16 25
e 16 8
e 16 24
e 16 99
e 16 3
e 16 14
e 16 61
e 16 88
e 16 74
e 16 46
e 16 23
e 16 32
e 22 60
e 22 37
e 22 11
e 22 27
e 22 3
e 22 64
e 22 100
e 22 9
e 22 20
e 22 63
e 22 40
e 22 49
e 22 67
e 22 62
e 22 48
e 22 7
e 22 18
e 22 85
e 22 13
e 22 98
e 2 87
e 2 90
e 2 62
e 2 66
e 2 47
e 2 99
e 2 94
e 2 80
e 2 84
e 2 70
e 2 79
e 2 56
e 2 65
e 2 92
e 2 9
e 2 18
e 2 27
e 2 40
e 2 26
e 2 12
e 87 59
e 87 21
e 87 82
e 87 5
e 87 57
e 87 96
e 87 49
e 87 41
e 87 60
e 87 61
e 87 36
e 87 17
e 87 31
e 87 45
e 87 64
e 87 93
e 87 97
e 87 88
e 87 37
e 87 18
e 8 18
e 8 13
e 8 91
e 8 68
e 8 86
e 8 95
e 8 67
e 8 62
e 8 57
e 8 15
e 8 4
e 8 7
e 8 80
e 8 74
e 8 33
e 8 51
e 8 60
e 8 19
e 8 55
e 8 9
e 18 59
e 18 54
e 18 67
e 18 76
e 18 62
e 18 39
e 18 57
e 18 34
e 18 6
e 18 14
e 18 71
e 18 80
e 18 61
e 18 70
e 18 56
e 18 7
e 18 78
e 27 31
e 27 40
e 27 100
e 27 6
e 27 72
e 27 17
e 27 49
e 27 76
e 27 66
e 27 9
e 27 43
e 27 38
e 27 94
e 27 80
e 27 83
e 27 24
e 27 55
e 27 50
e 27 45
e 31 11
e 31 75
e 31 84
e 31 70
e 31 78
e 31 55
e 31 17
e 31 32
e 31 58
e 31 35
e 31 62
e 31 48
e 31 57
e 31 21
e 31 34
e 31 43
e 31 52
e 31 13
e 31 26
e 68 69
e 68 29
e 68 51
e 68 19
e 68 96
e 68 73
e 68 82
e 68 81
e 68 33
e 68 14
e 68 9
e 68 50
e 68 53
e 68 45
e 68 93
e 68 79
e 68 88
e 68 97
e 68 48
e 68 67
e 69 33
e 69 84
e 69 17
e 69 70
e 69 79
e 69 97
e 69 28
e 69 9
e 69 73
e 69 1
e 69 67
e 69 82
e 69 95
e 69 32
e 69 85
e 69 43
e 69 57
e 69 19
e 69 10
e 69 11
e 40 90
e 40 76
e 40 21
e 40 62
e 40 71
e 40 48
e 40 43
e 40 6
e 40 35
e 40 28
e 40 93
e 40 56
e 40 83
e 40 92
e 40 25
e 40 14
e 40 78
e 40 54
e 59 96
e 59 49
e 59 82
e 59 100
e 59 51
e 59 72
e 59 67
e 59 43
e 59 35
e 59 47
e 59 53
e 59 25
e 59 55
e 59 56
e 59 97
e 59 74
e 59 50
e 59 12
e 59 57
e 37 72
e 37 81
e 37 58
e 37 44
e 37 48
e 37 33
e 37 6
e 37 36
e 37 14
e 37 38
e 37 99
e 37 98
e 37 4
e 37 47
e 37 83
e 37 46
e 37 50
e 37 24
e 37 91
e 72 70
e 72 51
e 72 65
e 72 89
e 72 98
e 72 35
e 72 19
e 72 49
e 72 83
e 72 44
e 72 33
e 72 36
e 72 58
e 72 9
e 72 39
e 72 96
e 72 76
e 29 54
e 29 4
e 29 49
e 29 53
e 29 85
e 29 52
e 29 19
e 29 61
e 29 83
e 29 33
e 29 51
e 29 55
e 29 3
e 29 36
e 29 14
e 29 25
e 29 92
e 29 78
e 29 82
e 29 91
e 6 66
e 6 1
e 6 97
e 6 42
e 6 51
e 6 28
e 6 32
e 6 63
e 6 90
e 6 81
e 6 21
e 6 57
e 6 25
e 6 43
e 6 33
e 6 10
e 6 98
e 66 14
e 66 89
e 66 75
e 66 79
e 66 88
e 66 97
e 66 20
e 66 74
e 66 54
e 66 82
e 66 51
e 66 86
e 66 43
e 66 44
e 66 63
e 66 76
e 66 19
e 66 58
e 81 13
e 81 5
e 81 49
e 81 79
e 81 41
e 81 3
e 81 44
e 81 14
e 81 36
e 81 77
e 81 47
e 81 9
e 81 50
e 81 1
e 81 12
e 81 23
e 81 80
e 81 4
e 41 42
e 41 46
e 41 45
e 41 33
e 41 17
e 41 28
e 41 91
e 41 77
e 41 71
e 41 99
e 41 21
e 41 85
e 41 13
e 41 80
e 41 89
e 41 79
e 41 19
e 41 74
e 41 38
e 42 43
e 42 3
e 42 99
e 42 9
e 42 1
e 42 51
e 42 60
e 42 78
e 42 46
e 42 34
e 42 100
e 42 86
e 42 54
e 42 90
e 42 67
e 42 62
e 42 71
e 42 48
e 42 57
e 1 10
e 1 89
e 1 57
e 1 88
e 1 14
e 1 23
e 1 9
e 1 4
e 1 64
e 1 73
e 1 91
e 1 63
e 1 49
e 1 44
e 1 62
e 1 7
e 1 11
e 10 73
e 10 50
e 10 86
e 10 58
e 10 30
e 10 21
e 10 25
e 10 34
e 10 90
e 10 98
e 10 75
e 10 84
e 10 74
e 10 24
e 10 33
e 10 23
e 10 13
e 73 49
e 73 91
e 73 86
e 73 35
e 73 99
e 73 76
e 73 38
e 73 80
e 73 30
e 73 71
e 73 23
e 73 63
e 73 39
e 73 88
e 73 4
e 73 26
e 96 62
e 96 43
e 96 84
e 96 35
e 96 63
e 96 93
e 96 28
e 96 58
e 96 20
e 96 100
e 96 88
e 96 12
e 96 61
e 96 15
e 96 64
e 96 94
e 96 26
e 7 58
e 7 44
e 7 62
e 7 71
e 7 34
e 7 47
e 7 19
e 7 99
e 7 80
e 7 98
e 7 84
e 7 79
e 7 65
e 7 78
e 7 28
e 7 46
e 7 17
e 58 99
e 58 94
e 58 60
e 58 35
e 58 57
e 58 33
e 58 14
e 58 28
e 58 47
e 58 85
e 58 39
e 58 53
e 58 4
e 58 34
e 49 13
e 49 38
e 49 90
e 49 53
e 49 44
e 49 94
e 49 98
e 49 84
e 49 23
e 49 70
e 49 79
e 49 92
e 51 92
e 51 82
e 51 100
e 51 25
e 51 71
e 51 47
e 51 4
e 51 45
e 51 26
e 51 89
e 51 78
e 51 64
e 51 19
e 92 13
e 92 74
e 92 46
e 92 99
e 92 88
e 92 94
e 92 3
e 92 83
e 92 25
e 92 14
e 92 48
e 92 50
e 92 78
e 92 93
e 92 45
e 92 84
e 43 26
e 43 100
e 43 77
e 43 63
e 43 62
e 43 90
e 43 11
e 43 30
e 43 80
e 43 70
e 43 56
e 43 60
e 3 33
e 3 55
e 3 50
e 3 91
e 3 77
e 3 45
e 3 26
e 3 57
e 3 11
e 3 15
e 3 75
e 3 93
e 3 70
e 3 88
e 3 47
e 33 97
e 33 74
e 33 12
e 33 21
e 33 54
e 33 90
e 33 53
e 33 11
e 33 99
e 33 75
e 74 84
e 74 93
e 74 79
e 74 97
e 74 44
e 74 36
e 74 9
e 74 34
e 74 91
e 74 90
e 74 76
e 74 24
e 74 94
e 84 25
e 84 39
e 84 61
e 84 80
e 84 83
e 84 85
e 84 45
e 84 67
e 84 70
e 84 5
e 84 54
e 84 30
e 34 48
e 34 15
e 34 85
e 34 89
e 34 52
e 34 46
e 34 55
e 34 64
e 34 36
e 34 30
e 34 100
e 34 86
e 34 90
e 34 53
e 48 53
e 48 52
e 48 5
e 48 19
e 48 88
e 48 97
e 48 83
e 48 11
e 48 78
e 48 30
e 48 20
e 48 86
e 48 95
e 93 14
e 93 28
e 93 88
e 93 61
e 93 80
e 93 64
e 93 56
e 93 75
e 93 86
e 93 78
e 93 54
e 93 46
e 93 52
e 93 44
e 21 82
e 21 30
e 21 13
e 21 52
e 21 85
e 21 89
e 21 98
e 21 65
e 21 83
e 21 78
e 21 64
e 21 32
e 21 4
e 21 15
e 13 64
e 13 82
e 13 91
e 13 86
e 13 76
e 13 44
e 13 30
e 13 24
e 13 12
e 13 56
e 13 60
e 13 32
e 15 52
e 15 20
e 15 24
e 15 99
e 15 80
e 15 89
e 15 79
e 15 56
e 15 65
e 15 60
e 15 17
e 15 91
e 15 63
e 15 67
e 15 76
e 15 44
e 14 28
e 14 4
e 14 82
e 14 86
e 14 54
e 14 26
e 14 35
e 14 57
e 14 71
e 5 97
e 5 83
e 5 78
e 5 77
e 5 54
e 5 67
e 5 26
e 5 35
e 5 30
e 5 90
e 5 80
e 5 75
e 5 79
e 5 56
e 5 55
e 5 23
e 5 17
e 97 44
e 97 85
e 97 88
e 97 45
e 97 50
e 97 78
e 97 89
e 97 26
e 97 46
e 97 57
e 97 76
e 52 78
e 52 82
e 52 9
e 52 50
e 52 39
e 52 77
e 52 46
e 52 67
e 52 75
e 52 61
e 52 56
e 52 25
e 52 47
e 52 20
e 17 71
e 17 80
e 17 89
e 17 57
e 17 70
e 17 88
e 17 38
e 17 11
e 17 32
e 17 50
e 17 91
e 17 54
e 17 24
e 71 46
e 71 82
e 71 77
e 71 86
e 71 11
e 71 30
e 71 60
e 71 24
e 71 38
e 71 23
e 71 53
e 71 45
e 67 90
e 67 76
e 67 24
e 67 54
e 67 75
e 67 78
e 67 55
e 67 20
e 67 50
e 67 23
e 90 39
e 90 65
e 90 46
e 90 11
e 90 79
e 90 85
e 90 50
e 90 23
e 25 70
e 25 79
e 25 64
e 25 50
e 25 19
e 25 95
e 25 44
e 25 53
e 25 30
e 25 85
e 25 80
e 44 45
e 44 76
e 44 62
e 44 20
e 44 39
e 44 4
e 44 89
e 44 75
e 80 20
e 80 39
e 80 12
e 80 53
e 80 64
e 80 60
e 89 100
e 89 28
e 89 47
e 89 20
e 89 39
e 89 86
e 89 78
e 89 94
e 89 32
e 89 62
e 54 24
e 54 91
e 54 86
e 54 76
e 54 98
e 54 47
e 54 45
e 54 26
e 50 36
e 50 56
e 50 47
e 50 45
e 50 77
e 50 53
e 50 38
e 99 70
e 99 64
e 99 32
e 99 38
e 99 77
e 99 100
e 99 11
e 99 63
e 99 55
e 99 56
e 70 82
e 70 100
e 70 63
e 70 20
e 70 61
e 70 4
e 70 62
e 70 24
e 70 38
e 82 24
e 82 46
e 82 19
e 82 85
e 82 12
e 82 53
e 82 56
e 82 98
e 78 95
e 78 35
e 78 75
e 78 64
e 78 26
e 95 26
e 95 57
e 95 46
e 95 30
e 95 36
e 95 55
e 95 85
e 95 88
e 95 12
e 95 61
e 95 53
e 95 4
e 95 83
e 95 94
e 95 86
e 30 55
e 30 36
e 30 91
e 30 77
e 30 19
e 30 39
e 30 20
e 30 12
e 30 75
e 55 88
e 55 83
e 55 60
e 55 28
e 55 47
e 55 23
e 55 4
e 55 35
e 55 85
e 46 86
e 46 63
e 46 76
e 46 12
e 46 57
e 46 75
e 46 35
e 86 76
e 86 94
e 86 77
e 86 47
e 86 100
e 100 62
e 100 35
e 100 38
e 100 11
e 100 77
e 100 23
e 100 83
e 100 94
e 100 75
e 62 91
e 62 76
e 62 60
e 62 20
e 62 12
e 62 61
e 11 23
e 11 32
e 11 4
e 11 39
e 11 94
e 11 98
e 11 79
e 11 9
e 23 94
e 23 61
e 23 56
e 23 65
e 23 12
e 23 64
e 23 36
e 23 57
e 60 36
e 60 28
e 60 9
e 60 4
e 60 77
e 60 26
e 60 94
e 60 75
e 60 79
e 32 77
e 32 63
e 32 35
e 32 39
e 32 9
e 32 12
e 32 94
e 32 79
e 32 56
e 32 24
e 32 19
e 63 65
e 63 35
e 63 38
e 63 28
e 63 47
e 63 9
e 63 4
e 63 56
e 63 98
e 79 9
e 79 61
e 79 45
e 79 98
e 79 83
e 4 38
e 4 85
e 4 61
e 4 12
e 20 98
e 20 88
e 20 56
e 20 64
e 20 36
e 20 91
e 20 39
e 20 9
e 83 36
e 83 77
e 83 28
e 83 39
e 83 45
e 83 12
e 83 24
e 57 85
e 57 35
e 57 65
e 57 39
e 38 77
e 38 24
e 38 53
e 38 94
e 38 36
e 38 88
e 38 28
e 38 9
e 76 26
e 76 65
e 76 36
e 76 98
e 76 45
e 53 94
e 53 75
e 53 61
e 53 35
e 53 12
e 53 85
e 94 9
e 94 45
e 94 65
e 94 36
e 39 75
e 39 65
e 39 91
e 39 77
e 39 45
e 28 98
e 28 75
e 28 61
e 28 65
e 28 12
e 28 35
e 91 24
e 91 65
e 91 35
e 91 36
e 91 47
e 98 85
e 98 61
e 98 64
e 98 24
e 98 65
e 65 47
e 65 64
e 65 56
e 65 24
e 65 75
e 65 19
e 9 47
e 64 88
e 64 12
e 64 77
e 64 19
e 26 19
e 26 88
e 26 56
e 26 36
e 26 77
e 26 45
e 77 85
e 77 61
e 88 85
e 88 24
e 36 47
e 36 12
e 47 85
e 47 19
e 24 35
e 75 61
e 75 19
e 56 61
e 56 19
e 61 45
e 45 35
e 12 19
